Route #1: 1 52 10 40 18 58 53 32 12 35 1
Route #2: 1 59 26 41 7 42 21 54 47 28 1
Route #3: 1 15 8 24 20 16 1
Route #4: 1 56 51 13 23 5 27 44 34 1
Route #5: 1 29 61 45 2 17 49 1
Route #6: 1 14 33 43 31 38 46 60 1
Route #7: 1 39 11 50 1
Route #8: 1 25 4 9 6 55 1
Route #9: 1 48 19 36 57 22 30 37 3 1
cost 1261.4100879178839